<number of tasks>
250

<cycle time>
1000

<order strength>
0.895


<task times>
1 200
2 116
3 117
4 57
5 166
6 106
7 182
8 60
9 153
10 189
11 39
12 82
13 95
14 112
15 76
16 325
17 75
18 250
19 174
20 103
21 189
22 52
23 255
24 119
25 176
26 253
27 123
28 101
29 32
30 66
31 152
32 171
33 50
34 159
35 239
36 22
37 111
38 75
39 75
40 40
41 75
42 29
43 173
44 69
45 85
46 185
47 37
48 54
49 90
50 102
51 51
52 64
53 324
54 103
55 164
56 61
57 110
58 233
59 124
60 114
61 88
62 23
63 72
64 247
65 135
66 83
67 233
68 163
69 66
70 112
71 285
72 231
73 74
74 271
75 57
76 168
77 68
78 20
79 131
80 89
81 223
82 229
83 134
84 77
85 171
86 110
87 142
88 170
89 67
90 156
91 222
92 195
93 192
94 122
95 80
96 88
97 95
98 159
99 222
100 148
101 56
102 160
103 83
104 185
105 91
106 211
107 201
108 111
109 219
110 61
111 131
112 50
113 131
114 38
115 47
116 121
117 145
118 150
119 170
120 46
121 161
122 53
123 293
124 183
125 108
126 195
127 83
128 84
129 110
130 52
131 208
132 187
133 300
134 35
135 154
136 132
137 188
138 145
139 87
140 180
141 63
142 54
143 165
144 291
145 57
146 81
147 65
148 94
149 170
150 100
151 114
152 109
153 199
154 112
155 150
156 107
157 51
158 191
159 78
160 269
161 121
162 83
163 38
164 258
165 117
166 47
167 66
168 61
169 156
170 190
171 63
172 84
173 156
174 34
175 106
176 169
177 94
178 91
179 324
180 70
181 211
182 256
183 331
184 92
185 83
186 29
187 164
188 354
189 82
190 309
191 83
192 143
193 66
194 78
195 72
196 174
197 256
198 194
199 87
200 185
201 145
202 170
203 180
204 108
205 109
206 102
207 126
208 116
209 112
210 56
211 83
212 38
213 103
214 51
215 50
216 27
217 230
218 158
219 164
220 263
221 194
222 31
223 309
224 68
225 47
226 280
227 302
228 174
229 176
230 105
231 144
232 192
233 78
234 173
235 155
236 174
237 129
238 342
239 121
240 97
241 137
242 121
243 104
244 43
245 102
246 77
247 224
248 294
249 125
250 148

<precedence relations>
1,4
1,5
1,6
1,7
1,8
2,4
2,5
2,6
2,7
2,8
3,4
3,5
3,6
3,7
3,8
4,9
4,10
4,11
4,12
4,13
5,9
5,10
5,11
5,12
5,13
6,9
6,10
6,11
6,12
6,13
7,9
7,10
7,11
7,12
7,13
8,9
8,10
8,11
8,12
8,13
9,14
9,15
9,16
10,14
10,15
10,16
11,14
11,15
11,16
12,14
12,15
12,16
13,14
13,15
13,16
14,17
14,18
15,17
15,18
16,17
16,18
17,19
17,20
17,21
17,22
17,23
18,19
18,20
18,21
18,22
18,23
19,24
19,25
19,26
20,24
20,25
20,26
21,24
21,25
21,26
22,24
22,25
22,26
23,24
23,25
23,26
24,27
24,28
24,29
24,30
24,31
24,32
25,27
25,28
25,29
25,30
25,31
25,32
26,27
26,28
26,29
26,30
26,31
26,32
27,33
27,34
27,35
28,33
28,34
28,35
29,33
29,34
29,35
30,33
30,34
30,35
31,33
31,34
31,35
32,33
32,34
32,35
33,36
33,37
33,38
33,39
34,36
34,37
34,38
34,39
35,36
35,37
35,38
35,39
36,40
36,41
36,42
36,43
36,44
36,45
37,40
37,41
37,42
37,43
37,44
37,45
38,40
38,41
38,42
38,44
39,40
39,41
39,44
39,45
40,46
40,47
40,48
40,49
40,50
41,46
41,47
41,48
41,49
41,50
42,46
42,47
42,48
42,49
42,50
43,46
43,47
43,48
43,49
43,50
44,46
44,47
44,48
44,49
44,50
45,46
45,47
45,48
45,49
45,50
46,51
46,52
46,53
46,54
46,55
47,51
47,52
47,53
47,54
47,55
48,51
48,52
48,53
48,54
48,55
49,51
49,52
49,53
49,54
49,55
50,51
50,52
50,53
50,54
50,55
51,56
51,57
51,58
51,59
51,60
51,61
52,56
52,57
52,58
52,59
52,60
52,61
53,56
53,57
53,58
53,59
53,60
53,61
54,56
54,57
55,56
55,63
56,64
56,65
57,62
57,63
57,64
57,65
58,62
58,63
58,64
59,80
59,86
60,62
60,63
60,64
60,65
61,62
61,63
62,66
62,67
62,68
62,69
62,70
63,66
63,67
63,68
63,69
63,70
64,66
64,67
64,68
64,69
64,70
65,66
65,67
65,68
65,69
66,71
66,72
66,73
66,74
66,75
66,76
67,71
67,72
67,73
67,74
68,72
69,71
69,72
69,73
69,76
70,71
70,72
70,75
70,76
71,77
71,78
71,79
72,77
72,78
72,79
73,77
73,78
73,79
74,77
74,78
74,79
75,77
75,78
76,115
76,123
76,129
77,80
77,81
77,82
77,84
78,80
78,81
78,82
78,83
78,84
79,80
79,81
79,82
79,83
79,84
80,85
80,87
81,85
81,86
81,87
82,85
82,86
82,87
83,85
83,86
83,87
84,85
84,86
84,87
85,88
85,90
86,97
86,98
87,88
87,89
87,90
88,91
88,92
88,93
89,136
89,137
89,138
90,91
90,92
90,93
91,94
91,95
91,96
92,94
92,95
92,96
93,94
93,95
93,96
94,97
94,98
95,97
95,98
96,97
96,98
97,99
97,100
98,99
98,100
99,101
99,102
99,103
99,104
99,105
99,106
99,107
100,101
100,102
100,103
100,104
100,105
100,106
100,107
101,108
101,109
101,110
102,108
102,109
102,110
103,108
103,109
103,110
104,108
104,109
104,110
105,108
105,109
105,110
106,108
106,109
106,110
107,108
107,109
107,110
108,113
108,120
109,112
110,111
110,114
111,115
111,116
111,117
111,118
111,119
112,115
112,116
112,117
113,116
113,117
114,115
114,118
114,119
114,120
115,121
115,132
116,121
116,122
116,123
117,124
118,121
118,122
118,124
119,122
119,134
119,146
120,121
120,132
121,125
122,132
123,125
124,126
124,127
125,130
125,131
126,128
126,129
126,132
127,193
127,200
128,138
128,162
129,133
129,134
129,137
129,138
130,133
130,135
130,137
131,134
131,135
131,136
131,137
131,138
132,168
133,146
134,142
134,147
135,141
135,192
135,193
136,147
136,162
137,139
137,140
137,141
137,142
138,156
138,193
139,147
139,154
139,169
140,143
140,144
141,146
141,167
142,143
142,144
142,145
143,151
144,148
144,149
144,150
145,155
145,162
146,168
146,172
146,173
146,174
147,153
148,152
148,153
149,154
149,155
149,156
149,166
150,217
150,227
151,153
151,155
151,157
151,167
152,160
152,161
152,162
153,158
153,159
153,173
154,158
155,189
155,200
156,198
157,158
158,163
158,164
158,168
159,165
159,166
159,177
160,164
160,179
160,182
161,163
161,165
161,167
161,181
162,168
162,169
163,170
163,171
164,172
165,210
166,190
166,202
167,173
167,179
167,180
168,170
168,175
169,197
169,236
170,179
171,174
171,176
172,175
173,184
173,198
174,177
174,178
174,179
175,180
175,181
175,187
175,190
176,177
176,182
176,188
178,188
179,184
179,186
180,183
180,189
180,228
180,234
181,240
182,185
182,187
182,194
183,194
183,243
183,249
184,190
184,202
185,192
185,193
185,217
186,190
186,213
187,200
187,210
188,191
189,224
190,196
190,217
191,195
191,198
192,197
193,195
194,231
195,199
195,202
195,203
196,199
196,204
197,202
197,240
198,200
198,201
199,205
199,210
200,205
200,206
200,208
201,204
201,205
202,207
202,220
204,210
205,212
205,214
205,215
205,216
206,211
206,231
207,213
207,214
207,238
208,209
210,230
211,217
211,219
211,243
212,219
213,234
215,218
217,248
218,221
218,222
219,220
219,223
220,225
221,224
222,226
222,227
223,228
224,229
226,229
227,230
227,231
227,232
228,240
229,246
230,233
230,235
230,237
232,234
232,236
232,238
233,239
234,239
234,247
234,248
235,242
235,246
236,244
237,240
237,243
238,241
238,242
240,246
241,244
243,245
244,248
244,250
245,247
246,247
246,249

<end>
